result&benchmarks/Data/Ex1/verify/Output/simple-ext_process_dc_iter1Output/Counterexample.3.smt2
(set-info :source |printed by MathSAT|)
(declare-fun |__ADDRESS_OF_main::t@| () (_ BitVec 32))
(declare-fun |__ADDRESS_OF_main::a@| () (_ BitVec 32))
(declare-fun malloc@2 () (_ BitVec 32))
(declare-fun |__ADDRESS_OF_#__VERIFIER_successful_alloc_*void#1@| () (_ BitVec 32))
(declare-fun |main::piVar1@3| () (_ BitVec 32))
(declare-fun |main::a$_4_4_@3| () (_ BitVec 32))
(declare-fun |main::piStack_18@3| () (_ BitVec 32))
(declare-fun |main::t$_4_4_@2| () (_ BitVec 32))
(declare-fun *int@1 () (Array (_ BitVec 32) (_ BitVec 32)))
(declare-fun *int@2 () (Array (_ BitVec 32) (_ BitVec 32)))
(declare-fun *int@3 () (Array (_ BitVec 32) (_ BitVec 32)))
(declare-fun *int@4 () (Array (_ BitVec 32) (_ BitVec 32)))
(declare-fun |main::piStack_18@4| () (_ BitVec 32))
(assert (let ((.def_134 (select *int@4 |main::piStack_18@4|)))(let ((.def_135 (= .def_134 (_ bv1 32))))(let ((.def_136 (not .def_135)))(let ((.def_104 (= |main::piStack_18@4| (_ bv0 32))))(let ((.def_105 (not .def_104)))(let ((.def_102 (= |main::piVar1@3| |main::piStack_18@4|)))(let ((.def_95 (bvadd (_ bv12 32) |main::piStack_18@3|)))(let ((.def_97 (store *int@3 .def_95 (_ bv0 32))))(let ((.def_98 (= *int@4 .def_97)))(let ((.def_86 (bvadd (_ bv8 32) |main::piStack_18@3|)))(let ((.def_88 (store *int@2 .def_86 (_ bv0 32))))(let ((.def_89 (= *int@3 .def_88)))(let ((.def_80 (store *int@1 |main::piStack_18@3| |main::a$_4_4_@3|)))(let ((.def_81 (= *int@2 .def_80)))(let ((.def_73 (= |main::t$_4_4_@2| (_ bv0 32))))(let ((.def_67 (bvslt |main::a$_4_4_@3| (_ bv30 32))))(let ((.def_64 (= |main::piVar1@3| |main::piStack_18@3|)))(let ((.def_61 (= |main::a$_4_4_@3| (_ bv0 32))))(let ((.def_54 (= |main::piVar1@3| (_ bv0 32))))(let ((.def_58 (not .def_54)))(let ((.def_36 (bvurem |__ADDRESS_OF_#__VERIFIER_successful_alloc_*void#1@| (_ bv8 32))))(let ((.def_37 (= .def_36 (_ bv0 32))))(let ((.def_24 (bvadd (_ bv4 32) |__ADDRESS_OF_main::a@|)))(let ((.def_34 (bvslt .def_24 |__ADDRESS_OF_#__VERIFIER_successful_alloc_*void#1@|)))(let ((.def_48 (and .def_34 .def_37)))(let ((.def_39 (bvadd (_ bv4 32) |__ADDRESS_OF_#__VERIFIER_successful_alloc_*void#1@|)))(let ((.def_40 (bvslt (_ bv0 32) .def_39)))(let ((.def_49 (and .def_40 .def_48)))(let ((.def_42 (bvadd (_ bv16 32) |__ADDRESS_OF_#__VERIFIER_successful_alloc_*void#1@|)))(let ((.def_43 (bvslt (_ bv0 32) .def_42)))(let ((.def_50 (and .def_43 .def_49)))(let ((.def_44 (bvslt (_ bv0 32) |__ADDRESS_OF_#__VERIFIER_successful_alloc_*void#1@|)))(let ((.def_51 (and .def_44 .def_50)))(let ((.def_30 (= malloc@2 (_ bv0 32))))(let ((.def_31 (not .def_30)))(let ((.def_45 (ite .def_31 |__ADDRESS_OF_#__VERIFIER_successful_alloc_*void#1@| (_ bv0 32))))(let ((.def_47 (= .def_45 |main::piVar1@3|)))(let ((.def_52 (and .def_47 .def_51)))(let ((.def_21 (bvurem |__ADDRESS_OF_main::a@| (_ bv4 32))))(let ((.def_22 (= .def_21 (_ bv0 32))))(let ((.def_15 (bvadd (_ bv4 32) |__ADDRESS_OF_main::t@|)))(let ((.def_20 (bvslt .def_15 |__ADDRESS_OF_main::a@|)))(let ((.def_26 (and .def_20 .def_22)))(let ((.def_25 (bvslt (_ bv0 32) .def_24)))(let ((.def_27 (and .def_25 .def_26)))(let ((.def_12 (bvurem |__ADDRESS_OF_main::t@| (_ bv4 32))))(let ((.def_13 (= .def_12 (_ bv0 32))))(let ((.def_11 (bvslt (_ bv0 32) |__ADDRESS_OF_main::t@|)))(let ((.def_17 (and .def_11 .def_13)))(let ((.def_16 (bvslt (_ bv0 32) .def_15)))(let ((.def_18 (and .def_16 .def_17)))(let ((.def_28 (and .def_18 .def_27)))(let ((.def_53 (and .def_28 .def_52)))(let ((.def_59 (and .def_53 .def_58)))(let ((.def_62 (and .def_59 .def_61)))(let ((.def_65 (and .def_62 .def_64)))(let ((.def_69 (and .def_65 .def_67)))(let ((.def_77 (and .def_69 .def_73)))(let ((.def_83 (and .def_77 .def_81)))(let ((.def_91 (and .def_83 .def_89)))(let ((.def_100 (and .def_91 .def_98)))(let ((.def_103 (and .def_100 .def_102)))(let ((.def_107 (and .def_103 .def_105)))(let ((.def_138 (and .def_107 .def_136))).def_138)))))))))))))))))))))))))))))))))))))))))))))))))))))))))))))))))