result&benchmarks/Data/Ex1/verify/Output/simple-ext_process_dc_iter1Output/Counterexample.3.txt
none:	N43 -{INIT GLOBAL VARS}-> N102
/usr/lib/gcc/x86_64-linux-gnu/11/include/stddef.h, line 209:	N102 -{typedef unsigned long int size_t;}-> N103
/usr/lib/gcc/x86_64-linux-gnu/11/include/stddef.h, line 321:	N103 -{typedef int wchar_t;}-> N104
/usr/include/stdlib.h, lines 59-63:	N104 -{struct __anon_type_div_t {   int quot;   int rem; } ;}-> N105
/usr/include/stdlib.h, lines 59-63:	N105 -{typedef struct __anon_type_div_t div_t;}-> N106
/usr/include/stdlib.h, lines 67-71:	N106 -{struct __anon_type_ldiv_t {   long int quot;   long int rem; } ;}-> N107
/usr/include/stdlib.h, lines 67-71:	N107 -{typedef struct __anon_type_ldiv_t ldiv_t;}-> N108
/usr/include/stdlib.h, lines 77-81:	N108 -{struct __anon_type_lldiv_t {   long long int quot;   long long int rem; } ;}-> N109
/usr/include/stdlib.h, lines 77-81:	N109 -{typedef struct __anon_type_lldiv_t lldiv_t;}-> N110
/usr/include/stdlib.h, line 98:	N110 -{size_t __ctype_get_mb_cur_max();}-> N111
/usr/include/stdlib.h, lines 102-103:	N111 -{double atof(const char *__nptr);}-> N112
/usr/include/stdlib.h, lines 105-106:	N112 -{int atoi(const char *__nptr);}-> N113
/usr/include/stdlib.h, lines 108-109:	N113 -{long int atol(const char *__nptr);}-> N114
/usr/include/stdlib.h, lines 113-114:	N114 -{long long int atoll(const char *__nptr);}-> N115
/usr/include/stdlib.h, lines 118-120:	N115 -{double strtod(const char *__nptr, char **__endptr);}-> N116
/usr/include/stdlib.h, lines 124-125:	N116 -{float strtof(const char *__nptr, char **__endptr);}-> N117
/usr/include/stdlib.h, lines 127-129:	N117 -{long double strtold(const char *__nptr, char **__endptr);}-> N118
/usr/include/stdlib.h, lines 177-179:	N118 -{long int strtol(const char *__nptr, char **__endptr, int __base);}-> N119
/usr/include/stdlib.h, lines 181-183:	N119 -{unsigned long int strtoul(const char *__nptr, char **__endptr, int __base);}-> N120
/usr/include/stdlib.h, lines 188-190:	N120 -{long long int strtoq(const char *__nptr, char **__endptr, int __base);}-> N121
/usr/include/stdlib.h, lines 193-195:	N121 -{unsigned long long int strtouq(const char *__nptr, char **__endptr, int __base);}-> N122
/usr/include/stdlib.h, lines 201-203:	N122 -{long long int strtoll(const char *__nptr, char **__endptr, int __base);}-> N123
/usr/include/stdlib.h, lines 206-208:	N123 -{unsigned long long int strtoull(const char *__nptr, char **__endptr, int __base);}-> N124
/usr/include/stdlib.h, line 386:	N124 -{char *l64a(long int __n);}-> N125
/usr/include/stdlib.h, lines 389-390:	N125 -{long int a64l(const char *__s);}-> N126
/usr/include/x86_64-linux-gnu/bits/types.h, line 31:	N126 -{typedef unsigned char __u_char;}-> N127
/usr/include/x86_64-linux-gnu/bits/types.h, line 32:	N127 -{typedef unsigned short int __u_short;}-> N128
/usr/include/x86_64-linux-gnu/bits/types.h, line 33:	N128 -{typedef unsigned int __u_int;}-> N129
/usr/include/x86_64-linux-gnu/bits/types.h, line 34:	N129 -{typedef unsigned long int __u_long;}-> N130
/usr/include/x86_64-linux-gnu/bits/types.h, line 37:	N130 -{typedef signed char __int8_t;}-> N131
/usr/include/x86_64-linux-gnu/bits/types.h, line 38:	N131 -{typedef unsigned char __uint8_t;}-> N132
/usr/include/x86_64-linux-gnu/bits/types.h, line 39:	N132 -{typedef signed short int __int16_t;}-> N133
/usr/include/x86_64-linux-gnu/bits/types.h, line 40:	N133 -{typedef unsigned short int __uint16_t;}-> N134
/usr/include/x86_64-linux-gnu/bits/types.h, line 41:	N134 -{typedef signed int __int32_t;}-> N135
/usr/include/x86_64-linux-gnu/bits/types.h, line 42:	N135 -{typedef unsigned int __uint32_t;}-> N136
/usr/include/x86_64-linux-gnu/bits/types.h, line 44:	N136 -{typedef signed long int __int64_t;}-> N137
/usr/include/x86_64-linux-gnu/bits/types.h, line 45:	N137 -{typedef unsigned long int __uint64_t;}-> N138
/usr/include/x86_64-linux-gnu/bits/types.h, line 52:	N138 -{typedef __int8_t __int_least8_t;}-> N139
/usr/include/x86_64-linux-gnu/bits/types.h, line 53:	N139 -{typedef __uint8_t __uint_least8_t;}-> N140
/usr/include/x86_64-linux-gnu/bits/types.h, line 54:	N140 -{typedef __int16_t __int_least16_t;}-> N141
/usr/include/x86_64-linux-gnu/bits/types.h, line 55:	N141 -{typedef __uint16_t __uint_least16_t;}-> N142
/usr/include/x86_64-linux-gnu/bits/types.h, line 56:	N142 -{typedef __int32_t __int_least32_t;}-> N143
/usr/include/x86_64-linux-gnu/bits/types.h, line 57:	N143 -{typedef __uint32_t __uint_least32_t;}-> N144
/usr/include/x86_64-linux-gnu/bits/types.h, line 58:	N144 -{typedef __int64_t __int_least64_t;}-> N145
/usr/include/x86_64-linux-gnu/bits/types.h, line 59:	N145 -{typedef __uint64_t __uint_least64_t;}-> N146
/usr/include/x86_64-linux-gnu/bits/types.h, line 63:	N146 -{typedef long int __quad_t;}-> N147
/usr/include/x86_64-linux-gnu/bits/types.h, line 64:	N147 -{typedef unsigned long int __u_quad_t;}-> N148
/usr/include/x86_64-linux-gnu/bits/types.h, line 72:	N148 -{typedef long int __intmax_t;}-> N149
/usr/include/x86_64-linux-gnu/bits/types.h, line 73:	N149 -{typedef unsigned long int __uintmax_t;}-> N150
/usr/include/x86_64-linux-gnu/bits/types.h, line 145:	N150 -{typedef unsigned long int __dev_t;}-> N151
/usr/include/x86_64-linux-gnu/bits/types.h, line 146:	N151 -{typedef unsigned int __uid_t;}-> N152
/usr/include/x86_64-linux-gnu/bits/types.h, line 147:	N152 -{typedef unsigned int __gid_t;}-> N153
/usr/include/x86_64-linux-gnu/bits/types.h, line 148:	N153 -{typedef unsigned long int __ino_t;}-> N154
/usr/include/x86_64-linux-gnu/bits/types.h, line 149:	N154 -{typedef unsigned long int __ino64_t;}-> N155
/usr/include/x86_64-linux-gnu/bits/types.h, line 150:	N155 -{typedef unsigned int __mode_t;}-> N156
/usr/include/x86_64-linux-gnu/bits/types.h, line 151:	N156 -{typedef unsigned long int __nlink_t;}-> N157
/usr/include/x86_64-linux-gnu/bits/types.h, line 152:	N157 -{typedef long int __off_t;}-> N158
/usr/include/x86_64-linux-gnu/bits/types.h, line 153:	N158 -{typedef long int __off64_t;}-> N159
/usr/include/x86_64-linux-gnu/bits/types.h, line 154:	N159 -{typedef int __pid_t;}-> N160
/usr/include/x86_64-linux-gnu/bits/types.h, line 155:	N160 -{struct __anon_type___fsid_t {   int __val[2]; } ;}-> N161
/usr/include/x86_64-linux-gnu/bits/types.h, line 155:	N161 -{typedef struct __anon_type___fsid_t __fsid_t;}-> N162
/usr/include/x86_64-linux-gnu/bits/types.h, line 156:	N162 -{typedef long int __clock_t;}-> N163
/usr/include/x86_64-linux-gnu/bits/types.h, line 157:	N163 -{typedef unsigned long int __rlim_t;}-> N164
/usr/include/x86_64-linux-gnu/bits/types.h, line 158:	N164 -{typedef unsigned long int __rlim64_t;}-> N165
/usr/include/x86_64-linux-gnu/bits/types.h, line 159:	N165 -{typedef unsigned int __id_t;}-> N166
/usr/include/x86_64-linux-gnu/bits/types.h, line 160:	N166 -{typedef long int __time_t;}-> N167
/usr/include/x86_64-linux-gnu/bits/types.h, line 161:	N167 -{typedef unsigned int __useconds_t;}-> N168
/usr/include/x86_64-linux-gnu/bits/types.h, line 162:	N168 -{typedef long int __suseconds_t;}-> N169
/usr/include/x86_64-linux-gnu/bits/types.h, line 163:	N169 -{typedef long int __suseconds64_t;}-> N170
/usr/include/x86_64-linux-gnu/bits/types.h, line 165:	N170 -{typedef int __daddr_t;}-> N171
/usr/include/x86_64-linux-gnu/bits/types.h, line 166:	N171 -{typedef int __key_t;}-> N172
/usr/include/x86_64-linux-gnu/bits/types.h, line 169:	N172 -{typedef int __clockid_t;}-> N173
/usr/include/x86_64-linux-gnu/bits/types.h, line 172:	N173 -{typedef void *__timer_t;}-> N174
/usr/include/x86_64-linux-gnu/bits/types.h, line 175:	N174 -{typedef long int __blksize_t;}-> N175
/usr/include/x86_64-linux-gnu/bits/types.h, line 180:	N175 -{typedef long int __blkcnt_t;}-> N176
/usr/include/x86_64-linux-gnu/bits/types.h, line 181:	N176 -{typedef long int __blkcnt64_t;}-> N177
/usr/include/x86_64-linux-gnu/bits/types.h, line 184:	N177 -{typedef unsigned long int __fsblkcnt_t;}-> N178
/usr/include/x86_64-linux-gnu/bits/types.h, line 185:	N178 -{typedef unsigned long int __fsblkcnt64_t;}-> N179
/usr/include/x86_64-linux-gnu/bits/types.h, line 188:	N179 -{typedef unsigned long int __fsfilcnt_t;}-> N180
/usr/include/x86_64-linux-gnu/bits/types.h, line 189:	N180 -{typedef unsigned long int __fsfilcnt64_t;}-> N181
/usr/include/x86_64-linux-gnu/bits/types.h, line 192:	N181 -{typedef long int __fsword_t;}-> N182
/usr/include/x86_64-linux-gnu/bits/types.h, line 194:	N182 -{typedef long int __ssize_t;}-> N183
/usr/include/x86_64-linux-gnu/bits/types.h, line 197:	N183 -{typedef long int __syscall_slong_t;}-> N184
/usr/include/x86_64-linux-gnu/bits/types.h, line 199:	N184 -{typedef unsigned long int __syscall_ulong_t;}-> N185
/usr/include/x86_64-linux-gnu/bits/types.h, line 203:	N185 -{typedef __off64_t __loff_t;}-> N186
/usr/include/x86_64-linux-gnu/bits/types.h, line 204:	N186 -{typedef char *__caddr_t;}-> N187
/usr/include/x86_64-linux-gnu/bits/types.h, line 207:	N187 -{typedef long int __intptr_t;}-> N188
/usr/include/x86_64-linux-gnu/bits/types.h, line 210:	N188 -{typedef unsigned int __socklen_t;}-> N189
/usr/include/x86_64-linux-gnu/bits/types.h, line 215:	N189 -{typedef int __sig_atomic_t;}-> N190
/usr/include/x86_64-linux-gnu/sys/types.h, line 33:	N190 -{typedef __u_char u_char;}-> N191
/usr/include/x86_64-linux-gnu/sys/types.h, line 34:	N191 -{typedef __u_short u_short;}-> N192
/usr/include/x86_64-linux-gnu/sys/types.h, line 35:	N192 -{typedef __u_int u_int;}-> N193
/usr/include/x86_64-linux-gnu/sys/types.h, line 36:	N193 -{typedef __u_long u_long;}-> N194
/usr/include/x86_64-linux-gnu/sys/types.h, line 37:	N194 -{typedef __quad_t quad_t;}-> N195
/usr/include/x86_64-linux-gnu/sys/types.h, line 38:	N195 -{typedef __u_quad_t u_quad_t;}-> N196
/usr/include/x86_64-linux-gnu/sys/types.h, line 39:	N196 -{typedef __fsid_t fsid_t;}-> N197
/usr/include/x86_64-linux-gnu/sys/types.h, line 42:	N197 -{typedef __loff_t loff_t;}-> N198
/usr/include/x86_64-linux-gnu/sys/types.h, line 47:	N198 -{typedef __ino_t ino_t;}-> N199
/usr/include/x86_64-linux-gnu/sys/types.h, line 59:	N199 -{typedef __dev_t dev_t;}-> N200
/usr/include/x86_64-linux-gnu/sys/types.h, line 64:	N200 -{typedef __gid_t gid_t;}-> N201
/usr/include/x86_64-linux-gnu/sys/types.h, line 69:	N201 -{typedef __mode_t mode_t;}-> N202
/usr/include/x86_64-linux-gnu/sys/types.h, line 74:	N202 -{typedef __nlink_t nlink_t;}-> N203
/usr/include/x86_64-linux-gnu/sys/types.h, line 79:	N203 -{typedef __uid_t uid_t;}-> N204
/usr/include/x86_64-linux-gnu/sys/types.h, line 85:	N204 -{typedef __off_t off_t;}-> N205
/usr/include/x86_64-linux-gnu/sys/types.h, line 97:	N205 -{typedef __pid_t pid_t;}-> N206
/usr/include/x86_64-linux-gnu/sys/types.h, line 103:	N206 -{typedef __id_t id_t;}-> N207
/usr/include/x86_64-linux-gnu/sys/types.h, line 108:	N207 -{typedef __ssize_t ssize_t;}-> N208
/usr/include/x86_64-linux-gnu/sys/types.h, line 114:	N208 -{typedef __daddr_t daddr_t;}-> N209
/usr/include/x86_64-linux-gnu/sys/types.h, line 115:	N209 -{typedef __caddr_t caddr_t;}-> N210
/usr/include/x86_64-linux-gnu/sys/types.h, line 121:	N210 -{typedef __key_t key_t;}-> N211
/usr/include/x86_64-linux-gnu/bits/types/clock_t.h, line 7:	N211 -{typedef __clock_t clock_t;}-> N212
/usr/include/x86_64-linux-gnu/bits/types/clockid_t.h, line 7:	N212 -{typedef __clockid_t clockid_t;}-> N213
/usr/include/x86_64-linux-gnu/bits/types/time_t.h, line 10:	N213 -{typedef __time_t time_t;}-> N214
/usr/include/x86_64-linux-gnu/bits/types/timer_t.h, line 7:	N214 -{typedef __timer_t timer_t;}-> N215
/usr/include/x86_64-linux-gnu/sys/types.h, line 148:	N215 -{typedef unsigned long int ulong;}-> N216
/usr/include/x86_64-linux-gnu/sys/types.h, line 149:	N216 -{typedef unsigned short int ushort;}-> N217
/usr/include/x86_64-linux-gnu/sys/types.h, line 150:	N217 -{typedef unsigned int uint;}-> N218
/usr/include/x86_64-linux-gnu/bits/stdint-intn.h, line 24:	N218 -{typedef __int8_t int8_t;}-> N219
/usr/include/x86_64-linux-gnu/bits/stdint-intn.h, line 25:	N219 -{typedef __int16_t int16_t;}-> N220
/usr/include/x86_64-linux-gnu/bits/stdint-intn.h, line 26:	N220 -{typedef __int32_t int32_t;}-> N221
/usr/include/x86_64-linux-gnu/bits/stdint-intn.h, line 27:	N221 -{typedef __int64_t int64_t;}-> N222
/usr/include/x86_64-linux-gnu/sys/types.h, line 158:	N222 -{typedef __uint8_t u_int8_t;}-> N223
/usr/include/x86_64-linux-gnu/sys/types.h, line 159:	N223 -{typedef __uint16_t u_int16_t;}-> N224
/usr/include/x86_64-linux-gnu/sys/types.h, line 160:	N224 -{typedef __uint32_t u_int32_t;}-> N225
/usr/include/x86_64-linux-gnu/sys/types.h, line 161:	N225 -{typedef __uint64_t u_int64_t;}-> N226
/usr/include/x86_64-linux-gnu/sys/types.h, line 164:	N226 -{typedef signed int register_t;}-> N227
/usr/include/x86_64-linux-gnu/bits/byteswap.h, lines 33-41:	N227 -{__uint16_t __bswap_16(__uint16_t __bsx);}-> N228
/usr/include/x86_64-linux-gnu/bits/byteswap.h, lines 48-56:	N228 -{__uint32_t __bswap_32(__uint32_t __bsx);}-> N229
/usr/include/x86_64-linux-gnu/bits/byteswap.h, lines 69-77:	N229 -{__uint64_t __bswap_64(__uint64_t __bsx);}-> N230
/usr/include/x86_64-linux-gnu/bits/uintn-identity.h, lines 32-36:	N230 -{__uint16_t __uint16_identity(__uint16_t __x);}-> N231
/usr/include/x86_64-linux-gnu/bits/uintn-identity.h, lines 38-42:	N231 -{__uint32_t __uint32_identity(__uint32_t __x);}-> N232
/usr/include/x86_64-linux-gnu/bits/uintn-identity.h, lines 44-48:	N232 -{__uint64_t __uint64_identity(__uint64_t __x);}-> N233
/usr/include/x86_64-linux-gnu/bits/types/__sigset_t.h, lines 5-8:	N233 -{struct __anon_type___sigset_t {   unsigned long int __val[32UL]; } ;}-> N234
/usr/include/x86_64-linux-gnu/bits/types/__sigset_t.h, lines 5-8:	N234 -{typedef struct __anon_type___sigset_t __sigset_t;}-> N235
/usr/include/x86_64-linux-gnu/bits/types/sigset_t.h, line 7:	N235 -{typedef __sigset_t sigset_t;}-> N236
/usr/include/x86_64-linux-gnu/bits/types/struct_timeval.h, lines 8-17:	N236 -{struct timeval {   __time_t tv_sec;   __suseconds_t tv_usec; } ;}-> N237
/usr/include/x86_64-linux-gnu/bits/types/struct_timespec.h, lines 11-31:	N237 -{struct timespec {   __time_t tv_sec;   __syscall_slong_t tv_nsec; } ;}-> N238
/usr/include/x86_64-linux-gnu/sys/select.h, line 43:	N238 -{typedef __suseconds_t suseconds_t;}-> N239
/usr/include/x86_64-linux-gnu/sys/select.h, line 49:	N239 -{typedef long int __fd_mask;}-> N240
/usr/include/x86_64-linux-gnu/sys/select.h, lines 59-70:	N240 -{struct __anon_type_fd_set {   __fd_mask __fds_bits[32]; } ;}-> N241
/usr/include/x86_64-linux-gnu/sys/select.h, lines 59-70:	N241 -{typedef struct __anon_type_fd_set fd_set;}-> N242
/usr/include/x86_64-linux-gnu/sys/select.h, line 77:	N242 -{typedef __fd_mask fd_mask;}-> N243
/usr/include/x86_64-linux-gnu/sys/select.h, lines 102-105:	N243 -{int select(int __nfds, fd_set *__readfds, fd_set *__writefds, fd_set *__exceptfds, struct timeval *__timeout);}-> N244
/usr/include/x86_64-linux-gnu/sys/select.h, lines 127-131:	N244 -{int pselect(int __nfds, fd_set *__readfds, fd_set *__writefds, fd_set *__exceptfds, const struct timespec *__timeout, const __sigset_t *__sigmask);}-> N245
/usr/include/x86_64-linux-gnu/sys/types.h, line 185:	N245 -{typedef __blksize_t blksize_t;}-> N246
/usr/include/x86_64-linux-gnu/sys/types.h, line 192:	N246 -{typedef __blkcnt_t blkcnt_t;}-> N247
/usr/include/x86_64-linux-gnu/sys/types.h, line 196:	N247 -{typedef __fsblkcnt_t fsblkcnt_t;}-> N248
/usr/include/x86_64-linux-gnu/sys/types.h, line 200:	N248 -{typedef __fsfilcnt_t fsfilcnt_t;}-> N249
/usr/include/x86_64-linux-gnu/bits/atomic_wide_counter.h, lines 28-32:	N249 -{struct __anon_type_0 {   unsigned int __low;   unsigned int __high; } ;}-> N250
/usr/include/x86_64-linux-gnu/bits/atomic_wide_counter.h, lines 25-33:	N250 -{union __anon_type___atomic_wide_counter {   unsigned long long int __value64;   struct __anon_type_0 __value32; } ;}-> N251
/usr/include/x86_64-linux-gnu/bits/atomic_wide_counter.h, lines 25-33:	N251 -{typedef union __anon_type___atomic_wide_counter __atomic_wide_counter;}-> N252
/usr/include/x86_64-linux-gnu/bits/thread-shared-types.h, lines 51-55:	N252 -{struct __pthread_internal_list {   struct __pthread_internal_list *__prev;   struct __pthread_internal_list *__next; } ;}-> N253
/usr/include/x86_64-linux-gnu/bits/thread-shared-types.h, lines 51-55:	N253 -{typedef struct __pthread_internal_list __pthread_list_t;}-> N254
/usr/include/x86_64-linux-gnu/bits/thread-shared-types.h, lines 57-60:	N254 -{struct __pthread_internal_slist {   struct __pthread_internal_slist *__next; } ;}-> N255
/usr/include/x86_64-linux-gnu/bits/thread-shared-types.h, lines 57-60:	N255 -{typedef struct __pthread_internal_slist __pthread_slist_t;}-> N256
/usr/include/x86_64-linux-gnu/bits/struct_mutex.h, lines 22-53:	N256 -{struct __pthread_mutex_s {   int __lock;   unsigned int __count;   int __owner;   unsigned int __nusers;   int __kind;   short __spins;   short __elision;   __pthread_list_t __list; } ;}-> N257
/usr/include/x86_64-linux-gnu/bits/struct_rwlock.h, lines 23-55:	N257 -{struct __pthread_rwlock_arch_t {   unsigned int __readers;   unsigned int __writers;   unsigned int __wrphase_futex;   unsigned int __writers_futex;   unsigned int __pad3;   unsigned int __pad4;   int __cur_writer;   int __shared;   signed char __rwelision;   unsigned char __pad1[7];   unsigned long int __pad2;   unsigned int __flags; } ;}-> N258
/usr/include/x86_64-linux-gnu/bits/thread-shared-types.h, lines 94-103:	N258 -{struct __pthread_cond_s {   __atomic_wide_counter __wseq;   __atomic_wide_counter __g1_start;   unsigned int __g_refs[2];   unsigned int __g_size[2];   unsigned int __g1_orig_size;   unsigned int __wrefs;   unsigned int __g_signals[2]; } ;}-> N259
/usr/include/x86_64-linux-gnu/bits/thread-shared-types.h, line 105:	N259 -{typedef unsigned int __tss_t;}-> N260
/usr/include/x86_64-linux-gnu/bits/thread-shared-types.h, line 106:	N260 -{typedef unsigned long int __thrd_t;}-> N261
/usr/include/x86_64-linux-gnu/bits/thread-shared-types.h, lines 108-111:	N261 -{struct __anon_type___once_flag {   int __data; } ;}-> N262
/usr/include/x86_64-linux-gnu/bits/thread-shared-types.h, lines 108-111:	N262 -{typedef struct __anon_type___once_flag __once_flag;}-> N263
/usr/include/x86_64-linux-gnu/bits/pthreadtypes.h, line 27:	N263 -{typedef unsigned long int pthread_t;}-> N264
/usr/include/x86_64-linux-gnu/bits/pthreadtypes.h, lines 32-36:	N264 -{union __anon_type_pthread_mutexattr_t {   char __size[4];   int __align; } ;}-> N265
/usr/include/x86_64-linux-gnu/bits/pthreadtypes.h, lines 32-36:	N265 -{typedef union __anon_type_pthread_mutexattr_t pthread_mutexattr_t;}-> N266
/usr/include/x86_64-linux-gnu/bits/pthreadtypes.h, lines 41-45:	N266 -{union __anon_type_pthread_condattr_t {   char __size[4];   int __align; } ;}-> N267
/usr/include/x86_64-linux-gnu/bits/pthreadtypes.h, lines 41-45:	N267 -{typedef union __anon_type_pthread_mutexattr_t pthread_condattr_t;}-> N268
/usr/include/x86_64-linux-gnu/bits/pthreadtypes.h, line 49:	N268 -{typedef unsigned int pthread_key_t;}-> N269
/usr/include/x86_64-linux-gnu/bits/pthreadtypes.h, line 53:	N269 -{typedef int pthread_once_t;}-> N270
/usr/include/x86_64-linux-gnu/bits/pthreadtypes.h, lines 56-60:	N270 -{union pthread_attr_t {   char __size[56];   long int __align; } ;}-> N271
/usr/include/x86_64-linux-gnu/bits/pthreadtypes.h, line 62:	N271 -{typedef union pthread_attr_t pthread_attr_t;}-> N272
/usr/include/x86_64-linux-gnu/bits/pthreadtypes.h, lines 67-72:	N272 -{union __anon_type_pthread_mutex_t {   struct __pthread_mutex_s __data;   char __size[40];   long int __align; } ;}-> N273
/usr/include/x86_64-linux-gnu/bits/pthreadtypes.h, lines 67-72:	N273 -{typedef union __anon_type_pthread_mutex_t pthread_mutex_t;}-> N274
/usr/include/x86_64-linux-gnu/bits/pthreadtypes.h, lines 75-80:	N274 -{union __anon_type_pthread_cond_t {   struct __pthread_cond_s __data;   char __size[48];   long long int __align; } ;}-> N275
/usr/include/x86_64-linux-gnu/bits/pthreadtypes.h, lines 75-80:	N275 -{typedef union __anon_type_pthread_cond_t pthread_cond_t;}-> N276
/usr/include/x86_64-linux-gnu/bits/pthreadtypes.h, lines 86-91:	N276 -{union __anon_type_pthread_rwlock_t {   struct __pthread_rwlock_arch_t __data;   char __size[56];   long int __align; } ;}-> N277
/usr/include/x86_64-linux-gnu/bits/pthreadtypes.h, lines 86-91:	N277 -{typedef union __anon_type_pthread_rwlock_t pthread_rwlock_t;}-> N278
/usr/include/x86_64-linux-gnu/bits/pthreadtypes.h, lines 93-97:	N278 -{union __anon_type_pthread_rwlockattr_t {   char __size[8];   long int __align; } ;}-> N279
/usr/include/x86_64-linux-gnu/bits/pthreadtypes.h, lines 93-97:	N279 -{typedef union __anon_type_pthread_rwlockattr_t pthread_rwlockattr_t;}-> N280
/usr/include/x86_64-linux-gnu/bits/pthreadtypes.h, line 103:	N280 -{typedef volatile int pthread_spinlock_t;}-> N281
/usr/include/x86_64-linux-gnu/bits/pthreadtypes.h, lines 108-112:	N281 -{union __anon_type_pthread_barrier_t {   char __size[32];   long int __align; } ;}-> N282
/usr/include/x86_64-linux-gnu/bits/pthreadtypes.h, lines 108-112:	N282 -{typedef union __anon_type_pthread_barrier_t pthread_barrier_t;}-> N283
/usr/include/x86_64-linux-gnu/bits/pthreadtypes.h, lines 114-118:	N283 -{union __anon_type_pthread_barrierattr_t {   char __size[4];   int __align; } ;}-> N284
/usr/include/x86_64-linux-gnu/bits/pthreadtypes.h, lines 114-118:	N284 -{typedef union __anon_type_pthread_mutexattr_t pthread_barrierattr_t;}-> N285
/usr/include/stdlib.h, line 402:	N285 -{long int random();}-> N286
/usr/include/stdlib.h, line 405:	N286 -{void srandom(unsigned int __seed);}-> N287
/usr/include/stdlib.h, lines 411-412:	N287 -{char *initstate(unsigned int __seed, char *__statebuf, size_t __statelen);}-> N288
/usr/include/stdlib.h, line 416:	N288 -{char *setstate(char *__statebuf);}-> N289
/usr/include/stdlib.h, lines 424-433:	N289 -{struct random_data {   int32_t *fptr;   int32_t *rptr;   int32_t *state;   int rand_type;   int rand_deg;   int rand_sep;   int32_t *end_ptr; } ;}-> N290
/usr/include/stdlib.h, lines 435-436:	N290 -{int random_r(struct random_data *__buf, int32_t *__result);}-> N291
/usr/include/stdlib.h, lines 438-439:	N291 -{int srandom_r(unsigned int __seed, struct random_data *__buf);}-> N292
/usr/include/stdlib.h, lines 441-444:	N292 -{int initstate_r(unsigned int __seed, char *__statebuf, size_t __statelen, struct random_data *__buf);}-> N293
/usr/include/stdlib.h, lines 446-448:	N293 -{int setstate_r(char *__statebuf, struct random_data *__buf);}-> N294
/usr/include/stdlib.h, line 454:	N294 -{int rand();}-> N295
/usr/include/stdlib.h, line 456:	N295 -{void srand(unsigned int __seed);}-> N296
/usr/include/stdlib.h, line 460:	N296 -{int rand_r(unsigned int *__seed);}-> N297
/usr/include/stdlib.h, line 468:	N297 -{double drand48();}-> N298
/usr/include/stdlib.h, line 469:	N298 -{double erand48(unsigned short int __xsubi[3]);}-> N299
/usr/include/stdlib.h, line 472:	N299 -{long int lrand48();}-> N300
/usr/include/stdlib.h, lines 473-474:	N300 -{long int nrand48(unsigned short int __xsubi[3]);}-> N301
/usr/include/stdlib.h, line 477:	N301 -{long int mrand48();}-> N302
/usr/include/stdlib.h, lines 478-479:	N302 -{long int jrand48(unsigned short int __xsubi[3]);}-> N303
/usr/include/stdlib.h, line 482:	N303 -{void srand48(long int __seedval);}-> N304
/usr/include/stdlib.h, lines 483-484:	N304 -{unsigned short int *seed48(unsigned short int __seed16v[3]);}-> N305
/usr/include/stdlib.h, line 485:	N305 -{void lcong48(unsigned short int __param[7]);}-> N306
/usr/include/stdlib.h, lines 491-499:	N306 -{struct drand48_data {   unsigned short int __x[3];   unsigned short int __old_x[3];   unsigned short int __c;   unsigned short int __init;   unsigned long long int __a; } ;}-> N307
/usr/include/stdlib.h, lines 502-503:	N307 -{int drand48_r(struct drand48_data *__buffer, double *__result);}-> N308
/usr/include/stdlib.h, lines 504-506:	N308 -{int erand48_r(unsigned short int __xsubi[3], struct drand48_data *__buffer, double *__result);}-> N309
/usr/include/stdlib.h, lines 509-511:	N309 -{int lrand48_r(struct drand48_data *__buffer, long int *__result);}-> N310
/usr/include/stdlib.h, lines 512-515:	N310 -{int nrand48_r(unsigned short int __xsubi[3], struct drand48_data *__buffer, long int *__result);}-> N311
/usr/include/stdlib.h, lines 518-520:	N311 -{int mrand48_r(struct drand48_data *__buffer, long int *__result);}-> N312
/usr/include/stdlib.h, lines 521-524:	N312 -{int jrand48_r(unsigned short int __xsubi[3], struct drand48_data *__buffer, long int *__result);}-> N313
/usr/include/stdlib.h, lines 527-528:	N313 -{int srand48_r(long int __seedval, struct drand48_data *__buffer);}-> N314
/usr/include/stdlib.h, lines 530-531:	N314 -{int seed48_r(unsigned short int __seed16v[3], struct drand48_data *__buffer);}-> N315
/usr/include/stdlib.h, lines 533-535:	N315 -{int lcong48_r(unsigned short int __param[7], struct drand48_data *__buffer);}-> N316
/usr/include/stdlib.h, lines 540-541:	N316 -{void *malloc(size_t __size);}-> N317
/usr/include/stdlib.h, lines 543-544:	N317 -{void *calloc(size_t __nmemb, size_t __size);}-> N318
/usr/include/stdlib.h, lines 551-552:	N318 -{void *realloc(void *__ptr, size_t __size);}-> N319
/usr/include/stdlib.h, line 555:	N319 -{void free(void *__ptr);}-> N320
/usr/include/stdlib.h, lines 563-566:	N320 -{void *reallocarray(void *__ptr, size_t __nmemb, size_t __size);}-> N321
/usr/include/alloca.h, line 32:	N321 -{void *alloca(size_t __size);}-> N322
/usr/include/stdlib.h, lines 580-581:	N322 -{void *valloc(size_t __size);}-> N323
/usr/include/stdlib.h, lines 586-587:	N323 -{int posix_memalign(void **__memptr, size_t __alignment, size_t __size);}-> N324
/usr/include/stdlib.h, lines 592-594:	N324 -{void *aligned_alloc(size_t __alignment, size_t __size);}-> N325
/usr/include/stdlib.h, line 598:	N325 -{void abort();}-> N326
/usr/include/stdlib.h, line 602:	N326 -{int atexit(void (*__func)());}-> N327
/usr/include/stdlib.h, line 610:	N327 -{int at_quick_exit(void (*__func)());}-> N328
/usr/include/stdlib.h, lines 617-618:	N328 -{int on_exit(void (*__func)(int __status, void *__arg), void *__arg);}-> N329
/usr/include/stdlib.h, line 624:	N329 -{void exit(int __status);}-> N330
/usr/include/stdlib.h, line 630:	N330 -{void quick_exit(int __status);}-> N331
/usr/include/stdlib.h, line 636:	N331 -{void _Exit(int __status);}-> N332
/usr/include/stdlib.h, line 641:	N332 -{char *getenv(const char *__name);}-> N333
/usr/include/stdlib.h, line 654:	N333 -{int putenv(char *__string);}-> N334
/usr/include/stdlib.h, lines 660-661:	N334 -{int setenv(const char *__name, const char *__value, int __replace);}-> N335
/usr/include/stdlib.h, line 664:	N335 -{int unsetenv(const char *__name);}-> N336
/usr/include/stdlib.h, line 671:	N336 -{int clearenv();}-> N337
/usr/include/stdlib.h, line 682:	N337 -{char *mktemp(char *__template);}-> N338
/usr/include/stdlib.h, line 695:	N338 -{int mkstemp(char *__template);}-> N339
/usr/include/stdlib.h, line 717:	N339 -{int mkstemps(char *__template, int __suffixlen);}-> N340
/usr/include/stdlib.h, line 738:	N340 -{char *mkdtemp(char *__template);}-> N341
/usr/include/stdlib.h, line 791:	N341 -{int system(const char *__command);}-> N342
/usr/include/stdlib.h, lines 808-809:	N342 -{char *realpath(const char *__name, char *__resolved);}-> N343
/usr/include/stdlib.h, line 816:	N343 -{typedef int (*__compar_fn_t)(const void *, const void *);}-> N344
/usr/include/stdlib.h, lines 828-830:	N344 -{void *bsearch(const void *__key, const void *__base, size_t __nmemb, size_t __size, __compar_fn_t __compar);}-> N345
/usr/include/stdlib.h, lines 838-839:	N345 -{void qsort(void *__base, size_t __nmemb, size_t __size, __compar_fn_t __compar);}-> N346
/usr/include/stdlib.h, line 848:	N346 -{int abs(int __x);}-> N347
/usr/include/stdlib.h, line 849:	N347 -{long int labs(long int __x);}-> N348
/usr/include/stdlib.h, lines 852-853:	N348 -{long long int llabs(long long int __x);}-> N349
/usr/include/stdlib.h, lines 860-861:	N349 -{div_t div(int __numer, int __denom);}-> N350
/usr/include/stdlib.h, lines 862-863:	N350 -{ldiv_t ldiv(long int __numer, long int __denom);}-> N351
/usr/include/stdlib.h, lines 866-868:	N351 -{lldiv_t lldiv(long long int __numer, long long int __denom);}-> N352
/usr/include/stdlib.h, lines 880-881:	N352 -{char *ecvt(double __value, int __ndigit, int *__decpt, int *__sign);}-> N353
/usr/include/stdlib.h, lines 886-887:	N353 -{char *fcvt(double __value, int __ndigit, int *__decpt, int *__sign);}-> N354
/usr/include/stdlib.h, lines 892-893:	N354 -{char *gcvt(double __value, int __ndigit, char *__buf);}-> N355
/usr/include/stdlib.h, lines 898-900:	N355 -{char *qecvt(long double __value, int __ndigit, int *__decpt, int *__sign);}-> N356
/usr/include/stdlib.h, lines 901-903:	N356 -{char *qfcvt(long double __value, int __ndigit, int *__decpt, int *__sign);}-> N357
/usr/include/stdlib.h, lines 904-905:	N357 -{char *qgcvt(long double __value, int __ndigit, char *__buf);}-> N358
/usr/include/stdlib.h, lines 910-912:	N358 -{int ecvt_r(double __value, int __ndigit, int *__decpt, int *__sign, char *__buf, size_t __len);}-> N359
/usr/include/stdlib.h, lines 913-915:	N359 -{int fcvt_r(double __value, int __ndigit, int *__decpt, int *__sign, char *__buf, size_t __len);}-> N360
/usr/include/stdlib.h, lines 917-920:	N360 -{int qecvt_r(long double __value, int __ndigit, int *__decpt, int *__sign, char *__buf, size_t __len);}-> N361
/usr/include/stdlib.h, lines 921-924:	N361 -{int qfcvt_r(long double __value, int __ndigit, int *__decpt, int *__sign, char *__buf, size_t __len);}-> N362
/usr/include/stdlib.h, line 930:	N362 -{int mblen(const char *__s, size_t __n);}-> N363
/usr/include/stdlib.h, lines 933-934:	N363 -{int mbtowc(wchar_t *__pwc, const char *__s, size_t __n);}-> N364
/usr/include/stdlib.h, line 937:	N364 -{int wctomb(char *__s, wchar_t __wchar);}-> N365
/usr/include/stdlib.h, lines 941-943:	N365 -{size_t mbstowcs(wchar_t *__pwcs, const char *__s, size_t __n);}-> N366
/usr/include/stdlib.h, lines 945-949:	N366 -{size_t wcstombs(char *__s, const wchar_t *__pwcs, size_t __n);}-> N367
/usr/include/stdlib.h, line 956:	N367 -{int rpmatch(const char *__response);}-> N368
/usr/include/stdlib.h, lines 967-970:	N368 -{int getsubopt(char **__optionp, char * const *__tokens, char **__valuep);}-> N369
/usr/include/stdlib.h, lines 1013-1014:	N369 -{int getloadavg(double __loadavg[], int __nelem);}-> N370
/usr/include/assert.h, lines 69-71:	N370 -{void __assert_fail(const char *__assertion, const char *__file, unsigned int __line, const char *__function);}-> N371
/usr/include/assert.h, lines 74-76:	N371 -{void __assert_perror_fail(int __errnum, const char *__file, unsigned int __line, const char *__function);}-> N372
/usr/include/assert.h, lines 81-82:	N372 -{void __assert(const char *__assertion, const char *__file, int __line);}-> N373
lines 5-7:	N373 -{struct List {   int _4_4_; } ;}-> N374
lines 5-7:	N374 -{typedef struct List List;}-> N375
lines 9-12:	N375 -{struct node {   int value;   struct node *next; } ;}-> N376
lines 9-12:	N376 -{typedef struct node node;}-> N377
lines 15-17:	N377 -{void myexit(int s);}-> N378
lines 20-22:	N378 -{void assume(int cond);}-> N379
lines 24-64:	N379 -{int main();}-> N380
none:	N380 -{Function start dummy edge}-> N44
line 25:	N44 -{int *piVar1;}-> N45
line 26:	N45 -{void *pvVar2;}-> N46
line 27:	N46 -{node *tmp;}-> N47
line 28:	N47 -{List t;}-> N48
	(&t) == 4LL;
	(t._4_4_) == 0;
line 29:	N48 -{int expr_tmp_var_43_int;}-> N49
line 30:	N49 -{List a;}-> N50
	(&a) == 12LL;
line 31:	N50 -{int *piStack_18;}-> N51
line 32:	N51 -{int i;}-> N52
line 33:	N52 -{List p;}-> N53
line 35:	N53 -{piVar1 = malloc(16);}-> N54
	piVar1 == 1073741824LL;
line 36:	N54 -{[!(piVar1 == ((int *)0))]}-> N55
	piVar1 == 1073741824LL;
	piVar1 == 1073741824LL;
(int *)0 == 0
line 39:	N55 -{a._4_4_ = 0;}-> N58
	(a._4_4_) == 0;
line 40:	N58 -{piStack_18 = piVar1;}-> N59
	piStack_18 == 1073741824LL;
line 41:	N59 -{while}-> N60
line 41:	N60 -{[(a._4_4_) < 30]}-> N63
	(a._4_4_) == 0;
	(a._4_4_) == 0;
line 41:	N63 -{[!((t._4_4_) != 0)]}-> N62
	(t._4_4_) == 0;
	(t._4_4_) == 0;
line 51:	N62 -{*piStack_18 = a._4_4_;}-> N72
	(*piStack_18) == 0;
line 52:	N72 -{piStack_18[2] = 0;}-> N73
	(piStack_18[2]) == 0;
line 53:	N73 -{piStack_18[3] = 0;}-> N74
	(piStack_18[3]) == 0;
line 54:	N74 -{for}-> N75
lines 54-58:	N75 -{piStack_18 = piVar1;}-> N76
	piStack_18 == 1073741824LL;
	(*piStack_18) == 0;
line 54:	N76 -{[piStack_18 != ((int *)0)]}-> N78
	piStack_18 == 1073741824LL;
	(*piStack_18) == 0;
	piStack_18 == 1073741824LL;
(*piStack_18) == 0;
(int *)0 == 0
line 55:	N78 -{[(*piStack_18) != 1]}-> N81
	(*piStack_18) == 0;
	(*piStack_18) == 0;
line 56:	N81 -{int __CPAchecker_TMP_2;}-> N82
line 56:	N82 -{}-> N84
line 56:	N84 -{__CPAchecker_TMP_2 = 0;}-> N86
line 56:	N86 -{4UL;}-> N87
line 56:	N87 -{}-> N90
line 56:	N90 -{__assert_fail("0 && \"Assertion failed: *piStack_18 should be 1\"", "/home/zyl/biVerify/CPA_DATA2/C/F/llmfix/realOutput/iterationTry/simple-ext_process_dc_iter1.c", 56, "__PRETTY_FUNCTION__");}-> N382
